decision_x1=[0,2];
decision_x2=[0,2];
decision_x3=[0,2];
decision_x4=[0,2];
decision_x5=[0,2];
decision_x6=[0,2];
decision_x7=[0,2];
decision_x8=[0,2];
decision_x9=[0,2];
decision_x10=[0,2];
decision_x11=[0,2];
decision_x12=[0,2];
random_y1=[0,2];
random_y2=[0,2];
random_y3=[0,2];
constraint_x3_x1=[
0,0,3.4|
0,1,1.4|
0,2,9.9|
1,0,4.4|
1,1,7.8|
1,2,0.56|
2,0,2.9|
2,1,5.2|
2,2,1.9|
];
constraint_x4_x3=[
0,0,0.71|
0,1,6|
0,2,0.53|
1,0,5.6|
1,1,6.3|
1,2,2.9|
2,0,3.4|
2,1,9.8|
2,2,1.7|
];
constraint_x5_x1=[
0,0,3|
0,1,2.6|
0,2,9.4|
1,0,5.5|
1,1,5.4|
1,2,2.5|
2,0,2.4|
2,1,6.7|
2,2,0.99|
];
constraint_x5_x2=[
0,0,8.5|
0,1,8.3|
0,2,0.61|
1,0,1.4|
1,1,5.7|
1,2,5.9|
2,0,2.2|
2,1,3.1|
2,2,2.7|
];
constraint_x6_x3=[
0,0,9.4|
0,1,0.35|
0,2,2.4|
1,0,8.6|
1,1,0.91|
1,2,9.7|
2,0,7.1|
2,1,4.2|
2,2,3.6|
];
constraint_x6_x5=[
0,0,1.3|
0,1,9.4|
0,2,2.8|
1,0,5.9|
1,1,4.9|
1,2,4.7|
2,0,2.4|
2,1,5.3|
2,2,9.3|
];
constraint_x7_x5=[
0,0,5.9|
0,1,3.7|
0,2,4.2|
1,0,7.6|
1,1,2.3|
1,2,3.1|
2,0,0.00086|
2,1,5.3|
2,2,2.7|
];
constraint_x7_x6=[
0,0,5.7|
0,1,8.4|
0,2,8.5|
1,0,3.8|
1,1,1.2|
1,2,4.5|
2,0,3.4|
2,1,3.5|
2,2,1.2|
];
constraint_x8_x1=[
0,0,9.1|
0,1,6.1|
0,2,8.6|
1,0,8|
1,1,4.2|
1,2,1.7|
2,0,0.91|
2,1,8.9|
2,2,0.77|
];
constraint_x8_x3=[
0,0,4.4|
0,1,3|
0,2,6.7|
1,0,0.48|
1,1,3.8|
1,2,10|
2,0,9.6|
2,1,8.3|
2,2,8.9|
];
constraint_x8_x4=[
0,0,5.4|
0,1,0.46|
0,2,6.5|
1,0,10|
1,1,8.6|
1,2,3|
2,0,6.6|
2,1,6.7|
2,2,8.8|
];
constraint_x8_x5=[
0,0,8.4|
0,1,6.3|
0,2,6.2|
1,0,9.9|
1,1,0.68|
1,2,6.5|
2,0,6.9|
2,1,7|
2,2,1.1|
];
constraint_x8_x6=[
0,0,6.1|
0,1,4.4|
0,2,4.6|
1,0,5.7|
1,1,2.7|
1,2,1.3|
2,0,8.6|
2,1,4.3|
2,2,4.5|
];
constraint_x9_x1=[
0,0,1.3|
0,1,4.1|
0,2,5.8|
1,0,8|
1,1,9|
1,2,7.9|
2,0,5.4|
2,1,1.8|
2,2,9|
];
constraint_x9_x2=[
0,0,9.4|
0,1,4.4|
0,2,7|
1,0,5.6|
1,1,5.1|
1,2,5.5|
2,0,7.8|
2,1,7.3|
2,2,6.3|
];
constraint_x9_x5=[
0,0,0.05|
0,1,1.2|
0,2,3.6|
1,0,7.6|
1,1,7|
1,2,8.2|
2,0,2.4|
2,1,1.4|
2,2,7.2|
];
constraint_x9_x7=[
0,0,6.2|
0,1,6.5|
0,2,4.6|
1,0,9.1|
1,1,8.3|
1,2,8.6|
2,0,5|
2,1,2.1|
2,2,9|
];
constraint_x9_x8=[
0,0,9.8|
0,1,7.3|
0,2,2|
1,0,2|
1,1,0.94|
1,2,1.8|
2,0,8.3|
2,1,6|
2,2,5.5|
];
constraint_x10_x1=[
0,0,7.5|
0,1,3.7|
0,2,8.6|
1,0,6.6|
1,1,5.8|
1,2,4.5|
2,0,2.2|
2,1,7.8|
2,2,5.4|
];
constraint_x10_x3=[
0,0,2.8|
0,1,8.2|
0,2,5.8|
1,0,0.18|
1,1,5.8|
1,2,3.3|
2,0,9.4|
2,1,2.3|
2,2,4|
];
constraint_x10_x4=[
0,0,9.2|
0,1,6.5|
0,2,6.1|
1,0,5.4|
1,1,9.3|
1,2,8.6|
2,0,0.87|
2,1,3.6|
2,2,7.6|
];
constraint_x10_x7=[
0,0,8.4|
0,1,8|
0,2,0.94|
1,0,7.4|
1,1,1.3|
1,2,0.63|
2,0,0.98|
2,1,9.9|
2,2,0.51|
];
constraint_x10_x8=[
0,0,3.9|
0,1,9.7|
0,2,1.4|
1,0,9.2|
1,1,4.1|
1,2,8|
2,0,3.7|
2,1,9.3|
2,2,0.63|
];
constraint_x10_x9=[
0,0,1.2|
0,1,1.3|
0,2,1.2|
1,0,7.1|
1,1,2.9|
1,2,8.9|
2,0,9.3|
2,1,2.3|
2,2,1.3|
];
constraint_x11_x2=[
0,0,0.95|
0,1,5.2|
0,2,7.3|
1,0,5.4|
1,1,1.4|
1,2,7.1|
2,0,1.4|
2,1,3.3|
2,2,1.7|
];
constraint_x11_x4=[
0,0,2.8|
0,1,4.1|
0,2,4.1|
1,0,6.6|
1,1,0.54|
1,2,6.7|
2,0,2.9|
2,1,0.4|
2,2,1.6|
];
constraint_x11_x10=[
0,0,1|
0,1,9.5|
0,2,0.74|
1,0,8.4|
1,1,5.4|
1,2,0.3|
2,0,6.4|
2,1,0.81|
2,2,9.4|
];
constraint_x12_x1=[
0,0,7.1|
0,1,3.4|
0,2,8.1|
1,0,5.2|
1,1,5.5|
1,2,0.53|
2,0,5.1|
2,1,9.7|
2,2,0.22|
];
constraint_x12_x2=[
0,0,3.4|
0,1,5.4|
0,2,7.7|
1,0,4.9|
1,1,6.2|
1,2,3.2|
2,0,9.4|
2,1,1.4|
2,2,3.5|
];
constraint_x12_x3=[
0,0,7.5|
0,1,6.2|
0,2,0.056|
1,0,0.45|
1,1,9|
1,2,1.8|
2,0,0.83|
2,1,6.3|
2,2,1.9|
];
constraint_x12_x5=[
0,0,4|
0,1,8.3|
0,2,0.85|
1,0,6.9|
1,1,7.6|
1,2,6.4|
2,0,4.5|
2,1,9.4|
2,2,6.2|
];
constraint_x12_x6=[
0,0,2.7|
0,1,3.2|
0,2,0.69|
1,0,6.1|
1,1,8.5|
1,2,4.2|
2,0,9.6|
2,1,1.8|
2,2,6.4|
];
constraint_x12_x9=[
0,0,2|
0,1,0.23|
0,2,6.7|
1,0,4.5|
1,1,1.5|
1,2,2.3|
2,0,9.7|
2,1,3.1|
2,2,8.4|
];
constraint_x1_y1=[
0,0,9.2|
0,1,5.8|
0,2,7.8|
1,0,4.3|
1,1,4.9|
1,2,3.1|
2,0,9.1|
2,1,0.7|
2,2,7.5|
];
constraint_x2_y2=[
0,0,2.1|
0,1,4.5|
0,2,1.8|
1,0,1.6|
1,1,0.69|
1,2,8.3|
2,0,9.6|
2,1,7.3|
2,2,5.9|
];
constraint_x3_y3=[
0,0,5.4|
0,1,0.47|
0,2,3.1|
1,0,8|
1,1,7.3|
1,2,0.71|
2,0,2.1|
2,1,6.5|
2,2,6.6|
];
initial_distribution_y1=[0.66,0.22,0.12];
initial_distribution_y2=[0.54,0.03,0.43];
initial_distribution_y3=[0.19,0.25,0.55];
transition_y1=[
0.1,0.57,0.33|
0.16,0.21,0.64|
0.33,0.0098,0.66|
];
transition_y2=[
0.79,0.11,0.1|
0.39,0.22,0.38|
0.45,0.44,0.11|
];
transition_y3=[
0.04,0.84,0.12|
0.19,0.71,0.11|
0.22,0.23,0.54|
];
